Problem:    
Rows:       256
Columns:    89 (72 integer, 72 binary)
Non-zeros:  960
Status:     INTEGER OPTIMAL
Objective:  value = 6.45695 (MINimum)

   No.   Row name        Activity     Lower bound   Upper bound
------ ------------    ------------- ------------- -------------
     1 r.5                   6.45695             0               
     2 r.6                   4.44525      -999.372               
     3 r.7                   1006.46             0               
     4 r.8                  -995.555      -997.213               
     5 r.9                   1006.46             0               
     6 r.10                 -995.271      -999.304               
     7 r.11                  6.45695             0               
     8 r.12                  4.72858      -996.327               
     9 r.13                  1006.46             0               
    10 r.14                 -995.968      -998.965               
    11 r.15                  6.45695             0               
    12 r.16                  4.72858      -995.213               
    13 r.17                  1006.46             0               
    14 r.18                 -998.634      -999.506               
    15 r.19                  6.45695             0               
    16 r.20                  2.99704      -996.937               
    17 r.21                  1006.46             0               
    18 r.22                 -997.893      -999.258               
    19 r.23                  6.45695             0               
    20 r.24                   5.1562      -996.657               
    21 r.25                  1006.46             0               
    22 r.26                 -999.948      -999.948               
    23 r.27                  6.45695             0               
    24 r.28                  -998.12       -998.12               
    25 r.29                  6.45695             0               
    26 r.30                  6.45695      -998.242               
    27 r.31                  1006.46             0               
    28 r.32                 -993.543      -997.988               
    29 r.33                  1006.46             0               
    30 r.34                 -993.543      -998.272               
    31 r.35                  6.45695             0               
    32 r.36                  6.45695      -997.645               
    33 r.37                        1             1             = 
    34 r.38                        1             1             = 
    35 r.39                        1             1             = 
    36 r.40                        1             1             = 
    37 r.41                        1             1             = 
    38 r.42                        1             1             = 
    39 r.43                        1             1             = 
    40 r.44                        1             1             = 
    41 r.45                     1001             2               
    42 r.46                    -1001         -1001               
    43 r.47                  2000.28      -999.304               
    44 r.48                     1001             2               
    45 r.49                    -1001         -1001               
    46 r.50                  2000.28      -996.327               
    47 r.51                     1001             2               
    48 r.52                    -1001         -1001               
    49 r.53                  1999.59      -998.965               
    50 r.54                     1001             2               
    51 r.55                    -1001         -1001               
    52 r.56                  2000.28      -995.213               
    53 r.57                     1001             2               
    54 r.58                    -1001         -1001               
    55 r.59                  1996.92      -999.506               
    56 r.60                     1001             2               
    57 r.61                    -1001         -1001               
    58 r.62                  1998.55      -996.937               
    59 r.63                     1001             2               
    60 r.64                    -1001         -1001               
    61 r.65                  1997.66      -999.258               
    62 r.66                     1001             2               
    63 r.67                    -1001         -1001               
    64 r.68                  2000.71      -996.657               
    65 r.69                  3.57305      -999.372               
    66 r.70                 -996.427      -997.213               
    67 r.71                  1003.23      -999.372               
    68 r.72                  3.22855      -997.213               
    69 r.73                   2.0117      -998.242               
    70 r.74                 -997.988      -997.988               
    71 r.75                   2.0117      -998.242               
    72 r.76                 -997.988      -997.988               
    73 r.77                     1001             2               
    74 r.78                    -1001         -1001               
    75 r.79                  2002.01      -998.272               
    76 r.80                     1001             2               
    77 r.81                    -1001         -1001               
    78 r.82                  2002.01      -997.645               
    79 r.83                     1001             2               
    80 r.84                    -1001         -1001               
    81 r.85                  1999.72      0.628022               
    82 r.86                     1001             2               
    83 r.87                    -1001         -1001               
    84 r.88                  1999.72       2.78668               
    85 r.89                        2             2               
    86 r.90                       -2         -1001               
    87 r.91                -0.696103      -998.965               
    88 r.92                     1000             2               
    89 r.93                    -1000         -1001               
    90 r.94                     2000      -995.213               
    91 r.95                        2             2               
    92 r.96                       -2         -1001               
    93 r.97                 -3.36273      -999.506               
    94 r.98                     1000             2               
    95 r.99                    -1000         -1001               
    96 r.100                 1998.27      -996.937               
    97 r.101                       2             2               
    98 r.102                      -2         -1001               
    99 r.103                -2.62114      -999.258               
   100 r.104                    1000             2               
   101 r.105                   -1000         -1001               
   102 r.106                 2000.43      -996.657               
   103 r.107                -996.144      -999.304               
   104 r.108                 3.85639      -996.327               
   105 r.109                 3.51188      -999.304               
   106 r.110                 1003.51      -996.327               
   107 r.111                    1001             2               
   108 r.112                   -1001         -1001               
   109 r.113                 2001.73      -998.242               
   110 r.114                    1001             2               
   111 r.115                   -1001         -1001               
   112 r.116                 2001.73      -997.988               
   113 r.117                -998.272      -998.272               
   114 r.118                 1.72837      -997.645               
   115 r.119                -998.272      -998.272               
   116 r.120                 1.72837      -997.645               
   117 r.121                    1001             2               
   118 r.122                   -1001         -1001               
   119 r.123                 2000.41      0.628022               
   120 r.124                    1001             2               
   121 r.125                   -1001         -1001               
   122 r.126                 1999.72       2.78668               
   123 r.127                       2             2               
   124 r.128                      -2         -1001               
   125 r.129                0.696103      0.696103               
   126 r.130                    1000             2               
   127 r.131                   -1000         -1001               
   128 r.132                    2000        3.6726               
   129 r.133                -997.333      -998.965               
   130 r.134                 3.36273      -995.213               
   131 r.135                -998.965      -998.965               
   132 r.136                 1.73155      -995.213               
   133 r.137                       2             2               
   134 r.138                      -2         -1001               
   135 r.139                -1.92504      -999.258               
   136 r.140                    1000             2               
   137 r.141                   -1000         -1001               
   138 r.142                 2000.43      -996.657               
   139 r.143                 -996.84      -998.965               
   140 r.144                 3.85639      -995.213               
   141 r.145                 2.81578      -998.965               
   142 r.146                 1003.51      -995.213               
   143 r.147                    1001             2               
   144 r.148                   -1001         -1001               
   145 r.149                 2002.42      -998.242               
   146 r.150                    1001             2               
   147 r.151                   -1001         -1001               
   148 r.152                 2001.73      -997.988               
   149 r.153                -997.576      -998.272               
   150 r.154                 2.42447      -997.645               
   151 r.155                -998.272      -998.272               
   152 r.156                 1.72837      -997.645               
   153 r.157                    1001             2               
   154 r.158                   -1001         -1001               
   155 r.159                 2003.08      0.628022               
   156 r.160                    1001             2               
   157 r.161                   -1001         -1001               
   158 r.162                 2001.45       2.78668               
   159 r.163                       2             2               
   160 r.164                      -2         -1001               
   161 r.165                 3.36273      0.696103               
   162 r.166                    1000             2               
   163 r.167                   -1000         -1001               
   164 r.168                 2001.73        3.6726               
   165 r.169                       2             2               
   166 r.170                      -2         -1001               
   167 r.171                -999.258      -999.258               
   168 r.172                    1000             2               
   169 r.173                   -1000         -1001               
   170 r.174                 2002.16      -996.657               
   171 r.175                -999.506      -999.506               
   172 r.176                 2.12484      -996.937               
   173 r.177                0.149151      -999.506               
   174 r.178                 1001.78      -996.937               
   175 r.179                    1001             2               
   176 r.180                   -1001         -1001               
   177 r.181                 2005.09      -998.242               
   178 r.182                    1001             2               
   179 r.183                   -1001         -1001               
   180 r.184                 2003.46      -997.988               
   181 r.185                -994.909      -998.272               
   182 r.186                  5.0911      -997.645               
   183 r.187                 -996.54      -998.272               
   184 r.188                 3.45991      -997.645               
   185 r.189                    1001             2               
   186 r.190                   -1001         -1001               
   187 r.191                 2001.45      0.628022               
   188 r.192                    1001             2               
   189 r.193                   -1001         -1001               
   190 r.194                    2000       2.78668               
   191 r.195                       2             2               
   192 r.196                      -2         -1001               
   193 r.197                 1.73155      0.696103               
   194 r.198                    1000             2               
   195 r.199                   -1000         -1001               
   196 r.200                 2000.28        3.6726               
   197 r.201                       2             2               
   198 r.202                      -2         -1001               
   199 r.203                 1.03544       1.03544               
   200 r.204                    1000             2               
   201 r.205                   -1000         -1001               
   202 r.206                 2000.28       4.78687               
   203 r.207                       2             2               
   204 r.208                      -2         -1001               
   205 r.209                 998.369      0.493656               
   206 r.210                    1000             2               
   207 r.211                   -1000         -1001               
   208 r.212                 1998.55       3.06257               
   209 r.213                -998.765      -999.258               
   210 r.214                 4.28401      -996.657               
   211 r.215                 0.89074      -999.258               
   212 r.216                 1003.94      -996.657               
   213 r.217                 3.45991      -998.242               
   214 r.218                 -996.54      -997.988               
   215 r.219                  2.0117      -998.242               
   216 r.220                -997.988      -997.988               
   217 r.221                 -996.54      -998.272               
   218 r.222                 3.45991      -997.645               
   219 r.223                -997.988      -998.272               
   220 r.224                  2.0117      -997.645               
   221 r.225                    1001             2               
   222 r.226                   -1001         -1001               
   223 r.227                 1998.27      0.696103               
   224 r.228                    1001             2               
   225 r.229                   -1001         -1001               
   226 r.230                 1998.27        3.6726               
   227 r.231                    1001             2               
   228 r.232                   -1001         -1001               
   229 r.233                 1997.58       1.03544               
   230 r.234                    1001             2               
   231 r.235                   -1001         -1001               
   232 r.236                 1998.27       4.78687               
   233 r.237                    1001             2               
   234 r.238                   -1001         -1001               
   235 r.239                 1994.91      0.493656               
   236 r.240                    1001             2               
   237 r.241                   -1001         -1001               
   238 r.242                 1996.54       3.06257               
   239 r.243                    1001             2               
   240 r.244                   -1001         -1001               
   241 r.245                    2000      -998.272               
   242 r.246                    1001             2               
   243 r.247                   -1001         -1001               
   244 r.248                    2000      -997.645               
   245 r.249                    1001             2               
   246 r.250                   -1001         -1001               
   247 r.251                 1997.99      0.628022               
   248 r.252                    1001             2               
   249 r.253                   -1001         -1001               
   250 r.254                 1997.99       2.78668               
   251 r.255                    1001             2               
   252 r.256                   -1001         -1001               
   253 r.257                    2000       1.75773               
   254 r.258                    1001             2               
   255 r.259                   -1001         -1001               
   256 r.260                    2000        2.0117               

   No. Column name       Activity     Lower bound   Upper bound
------ ------------    ------------- ------------- -------------
     1 tt                    6.45695             0               
     2 s_1_1        *              0             0             1 
     3 t_1_1                  2.0117             0               
     4 s_1_7        *              0             0             1 
     5 s_2_1        *              1             0             1 
     6 t_2_1                  2.0117             0               
     7 s_2_7        *              1             0             1 
     8 s_1_2        *              1             0             1 
     9 t_1_2                 1.72837             0               
    10 s_1_8        *              1             0             1 
    11 s_2_2        *              0             0             1 
    12 t_2_2                 1.72837             0               
    13 s_2_8        *              0             0             1 
    14 s_1_3        *              1             0             1 
    15 t_1_3                 2.42447             0               
    16 s_2_3        *              0             0             1 
    17 t_2_3                 1.72837             0               
    18 s_1_4        *              1             0             1 
    19 t_1_4                  5.0911             0               
    20 s_2_4        *              0             0             1 
    21 t_2_4                 3.45991             0               
    22 s_1_5        *              1             0             1 
    23 t_1_5                 3.45991             0               
    24 s_2_5        *              0             0             1 
    25 t_2_5                  2.0117             0               
    26 s_1_6        *              1             0             1 
    27 t_1_6                 5.58476             0               
    28 s_2_6        *              0             0             1 
    29 t_2_6                 1005.24             0               
    30 t_1_7                       0             0               
    31 t_2_7                       0             0               
    32 t_1_8                       0             0               
    33 t_2_8                       0             0               
    34 r_1_1_2      *              1             0             1 
    35 u_1_1_2      *              0             0             1 
    36 r_2_1_2      *              1             0             1 
    37 u_2_1_2      *              0             0             1 
    38 r_1_1_3      *              1             0             1 
    39 u_1_1_3      *              0             0             1 
    40 r_2_1_3      *              1             0             1 
    41 u_2_1_3      *              0             0             1 
    42 r_1_1_4      *              1             0             1 
    43 u_1_1_4      *              0             0             1 
    44 r_2_1_4      *              1             0             1 
    45 u_2_1_4      *              0             0             1 
    46 r_1_1_5      *              1             0             1 
    47 u_1_1_5      *              0             0             1 
    48 r_2_1_5      *              1             0             1 
    49 u_2_1_5      *              0             0             1 
    50 r_1_1_8      *              1             0             1 
    51 u_1_1_8      *              0             0             1 
    52 r_2_1_8      *              1             0             1 
    53 u_2_1_8      *              0             0             1 
    54 r_1_2_3      *              0             0             1 
    55 u_1_2_3      *              0             0             1 
    56 r_2_2_3      *              1             0             1 
    57 u_2_2_3      *              0             0             1 
    58 r_1_2_4      *              0             0             1 
    59 u_1_2_4      *              0             0             1 
    60 r_2_2_4      *              1             0             1 
    61 u_2_2_4      *              0             0             1 
    62 r_1_2_5      *              0             0             1 
    63 u_1_2_5      *              0             0             1 
    64 r_2_2_5      *              1             0             1 
    65 u_2_2_5      *              0             0             1 
    66 r_1_2_7      *              1             0             1 
    67 u_1_2_7      *              0             0             1 
    68 r_2_2_7      *              1             0             1 
    69 u_2_2_7      *              0             0             1 
    70 r_1_3_5      *              0             0             1 
    71 u_1_3_5      *              0             0             1 
    72 r_2_3_5      *              1             0             1 
    73 u_2_3_5      *              0             0             1 
    74 r_1_3_7      *              1             0             1 
    75 u_1_3_7      *              0             0             1 
    76 r_2_3_7      *              1             0             1 
    77 u_2_3_7      *              0             0             1 
    78 r_1_4_5      *              0             0             1 
    79 u_1_4_5      *              1             0             1 
    80 r_2_4_5      *              1             0             1 
    81 u_2_4_5      *              0             0             1 
    82 r_1_4_7      *              1             0             1 
    83 u_1_4_7      *              0             0             1 
    84 r_2_4_7      *              1             0             1 
    85 u_2_4_7      *              0             0             1 
    86 r_1_7_8      *              1             0             1 
    87 u_1_7_8      *              0             0             1 
    88 r_2_7_8      *              1             0             1 
    89 u_2_7_8      *              0             0             1 

Integer feasibility conditions:

KKT.PE: max.abs.err = 2.27e-13 on row 84
        max.rel.err = 7.74e-17 on row 99
        High quality

KKT.PB: max.abs.err = 1.11e-16 on row 125
        max.rel.err = 6.55e-17 on row 125
        High quality

End of output
